presolving:
   (0.2s) running MILP presolver
   (0.2s) MILP presolver found nothing
(round 1, exhaustive) 0 del vars, 0 del conss, 0 add conss, 0 chg bounds, 0 chg sides, 128 chg coeffs, 6945 upgd conss, 0 impls, 6795 clqs
(round 2, fast)       0 del vars, 0 del conss, 0 add conss, 0 chg bounds, 0 chg sides, 5376 chg coeffs, 6945 upgd conss, 0 impls, 6795 clqs
(round 3, medium)     0 del vars, 5888 del conss, 5760 add conss, 0 chg bounds, 1 chg sides, 5378 chg coeffs, 6945 upgd conss, 0 impls, 6795 clqs
   (1.5s) probing: 51/6900 (0.7%) - 0 fixings, 0 aggregations, 0 implications, 0 bound changes
   (1.5s) probing aborted: 50/50 successive totally useless probings
   (1.5s) symmetry computation started: requiring (bin +, int -, cont +), (fixed: bin -, int +, cont -)
   (1.6s) no symmetry present
presolving (4 rounds: 4 fast, 3 medium, 2 exhaustive):
 0 deleted vars, 5888 deleted constraints, 5760 added constraints, 0 tightened bounds, 0 added holes, 1 changed sides, 5378 changed coefficients
 0 implications, 6795 cliques
presolved problem has 6900 variables (6900 bin, 0 int, 0 impl, 0 cont) and 6817 constraints
     22 constraints of type <knapsack>
   6795 constraints of type <setppc>
transformed objective value is always integral (scale: 1)
Presolving Time: 1.64

 time | node  | left  |LP iter|LP it/n|mem/heur|mdpt |vars |cons |rows |cuts |sepa|confs|strbr|  dualbound   | primalbound  |  gap   | compl. 
p 2.8s|     1 |     0 |     0 |     - |  clique|   0 |6900 |6817 |6817 |   0 |  0 |   0 |   0 | 0.000000e+00 | 1.223470e+05 |    Inf | unknown
p 3.7s|     1 |     0 |     0 |     - | vbounds|   0 |6900 |6817 |6817 |   0 |  0 |   0 |   0 | 0.000000e+00 | 7.404700e+04 |    Inf | unknown
  7.6s|     1 |     0 |  1385 |     - |    94M |   0 |6900 |6828 |6817 |   0 |  0 |  11 |   0 | 2.681876e+04 | 7.404700e+04 | 176.10%| unknown
r 7.8s|     1 |     0 |  1385 |     - |rounding|   0 |6900 |6818 |6817 |   0 |  0 |  11 |   0 | 2.681876e+04 | 4.474000e+04 |  66.82%| unknown
i 7.8s|     1 |     0 |  1385 |     - |  oneopt|   0 |6900 |6818 |6817 |   0 |  0 |  11 |   0 | 2.681876e+04 | 3.980800e+04 |  48.43%| unknown
  9.4s|     1 |     0 |  1428 |     - |    96M |   0 |6900 |6818 |6818 |   1 |  1 |  11 |   0 | 2.684842e+04 | 3.980800e+04 |  48.27%| unknown
 11.1s|     1 |     0 |  1475 |     - |    96M |   0 |6900 |6818 |6819 |   2 |  2 |  11 |   0 | 2.686380e+04 | 3.980800e+04 |  48.18%| unknown
 13.5s|     1 |     0 |  1580 |     - |    97M |   0 |6900 |6818 |6820 |   3 |  3 |  11 |   0 | 2.687685e+04 | 3.980800e+04 |  48.11%| unknown
 15.9s|     1 |     0 |  1719 |     - |    98M |   0 |6900 |6818 |6821 |   4 |  4 |  11 |   0 | 2.691098e+04 | 3.980800e+04 |  47.92%| unknown
d22.7s|     1 |     0 |  2747 |     - |farkasdi|   0 |6900 |6818 |6821 |   0 |  6 |  11 |   0 | 2.691098e+04 | 2.748200e+04 |   2.12%| unknown
(run 1, node 1) restarting after 1077 global fixings of integer variables

(restart) converted 4 cuts from the global cut pool into linear constraints

presolving:
(round 1, fast)       3208 del vars, 3162 del conss, 0 add conss, 0 chg bounds, 0 chg sides, 170 chg coeffs, 0 upgd conss, 0 impls, 3643 clqs
   (25.7s) running MILP presolver
   (25.7s) MILP presolver found nothing
(round 2, medium)     3208 del vars, 3276 del conss, 111 add conss, 0 chg bounds, 0 chg sides, 170 chg coeffs, 0 upgd conss, 0 impls, 3643 clqs
(round 3, exhaustive) 3208 del vars, 3277 del conss, 111 add conss, 0 chg bounds, 0 chg sides, 170 chg coeffs, 4 upgd conss, 0 impls, 3643 clqs
presolving (4 rounds: 4 fast, 3 medium, 2 exhaustive):
 3208 deleted vars, 3277 deleted constraints, 111 added constraints, 0 tightened bounds, 0 added holes, 0 changed sides, 170 changed coefficients
 0 implications, 3643 cliques
presolved problem has 3692 variables (3692 bin, 0 int, 0 impl, 0 cont) and 3656 constraints
     13 constraints of type <knapsack>
   3643 constraints of type <setppc>
transformed objective value is always integral (scale: 1)
Presolving Time: 1.72
transformed 5/7 original solutions to the transformed problem space

 time | node  | left  |LP iter|LP it/n|mem/heur|mdpt |vars |cons |rows |cuts |sepa|confs|strbr|  dualbound   | primalbound  |  gap   | compl. 
 26.7s|     1 |     0 |  4692 |     - |   101M |   0 |3692 |3656 |3656 |   0 |  0 |1088 |   0 | 2.691098e+04 | 2.748200e+04 |   2.12%| unknown
 26.7s|     1 |     0 |  4692 |     - |   101M |   0 |3692 |3656 | 908 |   0 |  0 |1088 |   0 | 2.691098e+04 | 2.748200e+04 |   2.12%| unknown
 26.8s|     1 |     0 |  4692 |     - |   103M |   0 |3692 | 908 | 903 |   0 |  1 |1088 |   0 | 2.691098e+04 | 2.748200e+04 |   2.12%| unknown
 27.2s|     1 |     0 |  4738 |     - |   103M |   0 |3692 | 908 | 905 |   2 |  3 |1088 |   0 | 2.694156e+04 | 2.748200e+04 |   2.01%| unknown
 27.2s|     1 |     0 |  4738 |     - |   103M |   0 |3692 | 908 | 887 |   2 |  3 |1088 |   0 | 2.694156e+04 | 2.748200e+04 |   2.01%| unknown
(run 2, node 1) restarting after 3193 global fixings of integer variables

(restart) converted 2 cuts from the global cut pool into linear constraints

presolving:
(round 1, fast)       3193 del vars, 0 del conss, 0 add conss, 0 chg bounds, 0 chg sides, 54 chg coeffs, 0 upgd conss, 0 impls, 509 clqs
   (27.6s) running MILP presolver
   (27.6s) MILP presolver found nothing
(round 2, medium)     3193 del vars, 62 del conss, 58 add conss, 0 chg bounds, 0 chg sides, 54 chg coeffs, 0 upgd conss, 0 impls, 509 clqs
(round 3, exhaustive) 3193 del vars, 62 del conss, 58 add conss, 0 chg bounds, 0 chg sides, 54 chg coeffs, 2 upgd conss, 0 impls, 509 clqs
(round 4, exhaustive) 3193 del vars, 63 del conss, 58 add conss, 0 chg bounds, 0 chg sides, 56 chg coeffs, 2 upgd conss, 0 impls, 509 clqs
(round 5, exhaustive) 3193 del vars, 64 del conss, 58 add conss, 0 chg bounds, 0 chg sides, 56 chg coeffs, 2 upgd conss, 0 impls, 509 clqs
presolving (6 rounds: 6 fast, 5 medium, 4 exhaustive):
 3193 deleted vars, 64 deleted constraints, 58 added constraints, 0 tightened bounds, 0 added holes, 0 changed sides, 56 changed coefficients
 0 implications, 509 cliques
presolved problem has 499 variables (499 bin, 0 int, 0 impl, 0 cont) and 522 constraints
      6 constraints of type <knapsack>
    509 constraints of type <setppc>
      4 constraints of type <linear>
      3 constraints of type <logicor>
transformed objective value is always integral (scale: 1)
Presolving Time: 1.88
transformed 5/8 original solutions to the transformed problem space

 time | node  | left  |LP iter|LP it/n|mem/heur|mdpt |vars |cons |rows |cuts |sepa|confs|strbr|  dualbound   | primalbound  |  gap   | compl. 
 27.8s|     1 |     0 |  5549 |     - |   104M |   0 | 499 | 522 | 515 |   0 |  0 |1097 |   0 | 2.694156e+04 | 2.748200e+04 |   2.01%| unknown
 28.8s|     1 |     0 |  5587 |     - |   105M |   0 | 499 | 525 | 517 |   2 |  1 |1100 |   0 | 2.697032e+04 | 2.748200e+04 |   1.90%| unknown
 29.0s|     1 |     0 |  5587 |     - |   105M |   0 | 499 | 525 | 508 |   2 |  1 |1100 |   0 | 2.697032e+04 | 2.748200e+04 |   1.90%| unknown
 30.3s|     1 |     0 |  5624 |     - |   107M |   0 | 499 | 516 | 509 |   3 |  2 |1100 |   0 | 2.699491e+04 | 2.748200e+04 |   1.80%| unknown
 30.3s|     1 |     0 |  5624 |     - |   107M |   0 | 499 | 517 | 504 |   3 |  2 |1101 |   0 | 2.699491e+04 | 2.748200e+04 |   1.80%| unknown
 31.1s|     1 |     0 |  5682 |     - |   107M |   0 | 499 | 512 | 505 |   4 |  3 |1101 |   0 | 2.701403e+04 | 2.748200e+04 |   1.73%| unknown
 31.1s|     1 |     0 |  5682 |     - |   107M |   0 | 499 | 512 | 499 |   4 |  3 |1101 |   0 | 2.701403e+04 | 2.748200e+04 |   1.73%| unknown
 32.4s|     1 |     0 |  5737 |     - |   110M |   0 | 499 | 506 | 501 |   6 |  4 |1101 |   0 | 2.702980e+04 | 2.748200e+04 |   1.67%| unknown
 32.4s|     1 |     0 |  5737 |     - |   110M |   0 | 499 | 506 | 500 |   6 |  4 |1101 |   0 | 2.702980e+04 | 2.748200e+04 |   1.67%| unknown
 33.3s|     1 |     0 |  5769 |     - |   111M |   0 | 499 | 505 | 501 |   7 |  5 |1101 |   0 | 2.703386e+04 | 2.748200e+04 |   1.66%| unknown
 33.3s|     1 |     0 |  5769 |     - |   111M |   0 | 499 | 505 | 499 |   7 |  5 |1101 |   0 | 2.703386e+04 | 2.748200e+04 |   1.66%| unknown
 34.1s|     1 |     0 |  5805 |     - |   113M |   0 | 499 | 503 | 500 |   8 |  6 |1101 |   0 | 2.704128e+04 | 2.748200e+04 |   1.63%| unknown
 34.9s|     1 |     0 |  5874 |     - |   113M |   0 | 499 | 505 | 503 |  11 |  7 |1103 |   0 | 2.704731e+04 | 2.748200e+04 |   1.61%| unknown
 36.1s|     1 |     0 |  5926 |     - |   114M |   0 | 499 | 505 | 504 |  12 |  8 |1103 |   0 | 2.705657e+04 | 2.748200e+04 |   1.57%| unknown
 36.1s|     1 |     0 |  5926 |     - |   114M |   0 | 499 | 507 | 502 |  12 |  8 |1105 |   0 | 2.705657e+04 | 2.748200e+04 |   1.57%| unknown
 time | node  | left  |LP iter|LP it/n|mem/heur|mdpt |vars |cons |rows |cuts |sepa|confs|strbr|  dualbound   | primalbound  |  gap   | compl. 
 37.6s|     1 |     0 |  5971 |     - |   116M |   0 | 499 | 505 | 503 |  13 |  9 |1105 |   0 | 2.706216e+04 | 2.748200e+04 |   1.55%| unknown
 37.6s|     1 |     0 |  5971 |     - |   116M |   0 | 499 | 508 | 501 |  13 |  9 |1108 |   0 | 2.706216e+04 | 2.748200e+04 |   1.55%| unknown
 38.7s|     1 |     0 |  6012 |     - |   117M |   0 | 499 | 506 | 503 |  15 | 10 |1108 |   0 | 2.707024e+04 | 2.748200e+04 |   1.52%| unknown
 39.0s|     1 |     0 |  6038 |     - |   117M |   0 | 499 | 506 | 504 |  16 | 11 |1108 |   0 | 2.707176e+04 | 2.748200e+04 |   1.52%| unknown
 39.3s|     1 |     0 |  6073 |     - |   117M |   0 | 499 | 508 | 507 |  19 | 12 |1110 |   0 | 2.707581e+04 | 2.748200e+04 |   1.50%| unknown
 39.4s|     1 |     0 |  6073 |     - |   117M |   0 | 499 | 510 | 505 |  19 | 12 |1112 |   0 | 2.707581e+04 | 2.748200e+04 |   1.50%| unknown
 39.4s|     1 |     0 |  6080 |     - |   117M |   0 | 499 | 508 | 506 |  20 | 13 |1112 |   0 | 2.707592e+04 | 2.748200e+04 |   1.50%| unknown
 39.8s|     1 |     0 |  6121 |     - |   117M |   0 | 499 | 512 | 508 |  22 | 14 |1116 |   0 | 2.707884e+04 | 2.748200e+04 |   1.49%| unknown
 39.9s|     1 |     0 |  6121 |     - |   117M |   0 | 499 | 514 | 506 |  22 | 14 |1118 |   0 | 2.707884e+04 | 2.748200e+04 |   1.49%| unknown
 40.7s|     1 |     0 |  6150 |     - |   117M |   0 | 499 | 512 | 508 |  24 | 15 |1118 |   0 | 2.708011e+04 | 2.748200e+04 |   1.48%| unknown
 40.7s|     1 |     0 |  6150 |     - |   117M |   0 | 499 | 513 | 507 |  24 | 15 |1119 |   0 | 2.708011e+04 | 2.748200e+04 |   1.48%| unknown
 41.0s|     1 |     0 |  6193 |     - |   117M |   0 | 499 | 512 | 510 |  27 | 16 |1119 |   0 | 2.708330e+04 | 2.748200e+04 |   1.47%| unknown
 41.2s|     1 |     0 |  6193 |     - |   117M |   0 | 499 | 512 | 509 |  27 | 16 |1119 |   0 | 2.708330e+04 | 2.748200e+04 |   1.47%| unknown
 41.8s|     1 |     0 |  6206 |     - |   117M |   0 | 499 | 511 | 511 |  29 | 17 |1119 |   0 | 2.708438e+04 | 2.748200e+04 |   1.47%| unknown
 42.2s|     1 |     0 |  6221 |     - |   117M |   0 | 499 | 512 | 512 |  30 | 18 |1120 |   0 | 2.708473e+04 | 2.748200e+04 |   1.47%| unknown
 time | node  | left  |LP iter|LP it/n|mem/heur|mdpt |vars |cons |rows |cuts |sepa|confs|strbr|  dualbound   | primalbound  |  gap   | compl. 
 42.8s|     1 |     0 |  6233 |     - |   118M |   0 | 499 | 512 | 513 |  31 | 19 |1120 |   0 | 2.708511e+04 | 2.748200e+04 |   1.47%| unknown
 42.8s|     1 |     0 |  6251 |     - |   118M |   0 | 499 | 514 | 514 |  32 | 20 |1122 |   0 | 2.708709e+04 | 2.748200e+04 |   1.46%| unknown
 42.8s|     1 |     0 |  6251 |     - |   118M |   0 | 499 | 515 | 513 |  32 | 20 |1123 |   0 | 2.708709e+04 | 2.748200e+04 |   1.46%| unknown
 48.5s|     1 |     2 |  6914 |     - |   118M |   0 | 499 | 507 | 513 |  32 | 22 |1128 |  19 | 2.724203e+04 | 2.748200e+04 |   0.88%| unknown
(run 3, node 1) restarting after 49 global fixings of integer variables

(restart) converted 32 cuts from the global cut pool into linear constraints

presolving:
(round 1, fast)       49 del vars, 1 del conss, 0 add conss, 0 chg bounds, 0 chg sides, 6 chg coeffs, 0 upgd conss, 0 impls, 463 clqs
(round 2, exhaustive) 49 del vars, 1 del conss, 0 add conss, 0 chg bounds, 0 chg sides, 6 chg coeffs, 22 upgd conss, 0 impls, 463 clqs
(round 3, exhaustive) 49 del vars, 3 del conss, 0 add conss, 0 chg bounds, 0 chg sides, 9 chg coeffs, 22 upgd conss, 0 impls, 463 clqs
(round 4, exhaustive) 49 del vars, 5 del conss, 0 add conss, 0 chg bounds, 0 chg sides, 9 chg coeffs, 22 upgd conss, 0 impls, 463 clqs
presolving (5 rounds: 5 fast, 4 medium, 4 exhaustive):
 49 deleted vars, 5 deleted constraints, 0 added constraints, 0 tightened bounds, 0 added holes, 0 changed sides, 9 changed coefficients
 0 implications, 463 cliques
presolved problem has 450 variables (450 bin, 0 int, 0 impl, 0 cont) and 534 constraints
     28 constraints of type <knapsack>
    463 constraints of type <setppc>
     14 constraints of type <linear>
     29 constraints of type <logicor>
transformed objective value is always integral (scale: 1)
Presolving Time: 1.90
transformed 6/9 original solutions to the transformed problem space

 time | node  | left  |LP iter|LP it/n|mem/heur|mdpt |vars |cons |rows |cuts |sepa|confs|strbr|  dualbound   | primalbound  |  gap   | compl. 
 48.6s|     1 |     0 |  8212 |     - |   117M |   0 | 450 | 534 | 501 |   0 |  0 |1128 |  19 | 2.724203e+04 | 2.748200e+04 |   0.88%| unknown
 48.8s|     1 |     0 |  8267 |     - |   117M |   0 | 450 | 536 | 502 |   1 |  1 |1130 |  19 | 2.724203e+04 | 2.748200e+04 |   0.88%| unknown
 48.8s|     1 |     0 |  8267 |     - |   117M |   0 | 450 | 539 | 489 |   1 |  1 |1133 |  19 | 2.724203e+04 | 2.748200e+04 |   0.88%| unknown
 49.1s|     1 |     0 |  8329 |     - |   117M |   0 | 450 | 526 | 491 |   3 |  2 |1133 |  19 | 2.724203e+04 | 2.748200e+04 |   0.88%| unknown
 49.1s|     1 |     0 |  8329 |     - |   117M |   0 | 450 | 526 | 481 |   3 |  2 |1133 |  19 | 2.724203e+04 | 2.748200e+04 |   0.88%| unknown
 49.3s|     1 |     0 |  8357 |     - |   117M |   0 | 450 | 515 | 482 |   4 |  3 |1133 |  19 | 2.724203e+04 | 2.748200e+04 |   0.88%| unknown
 49.3s|     1 |     0 |  8357 |     - |   117M |   0 | 450 | 516 | 480 |   4 |  3 |1134 |  19 | 2.724203e+04 | 2.748200e+04 |   0.88%| unknown
 49.9s|     1 |     0 |  8433 |     - |   117M |   0 | 450 | 513 | 482 |   6 |  4 |1134 |  19 | 2.724203e+04 | 2.748200e+04 |   0.88%| unknown
 49.9s|     1 |     0 |  8433 |     - |   117M |   0 | 450 | 514 | 462 |   6 |  4 |1135 |  19 | 2.724203e+04 | 2.748200e+04 |   0.88%| unknown
 50.3s|     1 |     0 |  8492 |     - |   118M |   0 | 450 | 493 | 463 |   7 |  5 |1135 |  19 | 2.724203e+04 | 2.748200e+04 |   0.88%| unknown
 50.3s|     1 |     0 |  8492 |     - |   118M |   0 | 450 | 497 | 456 |   7 |  5 |1139 |  19 | 2.724203e+04 | 2.748200e+04 |   0.88%| unknown
 50.8s|     1 |     0 |  8585 |     - |   118M |   0 | 450 | 489 | 457 |   8 |  6 |1139 |  19 | 2.724203e+04 | 2.748200e+04 |   0.88%| unknown
 50.8s|     1 |     0 |  8585 |     - |   118M |   0 | 450 | 490 | 449 |   8 |  6 |1140 |  19 | 2.724203e+04 | 2.748200e+04 |   0.88%| unknown
 51.5s|     1 |     0 |  8627 |     - |   120M |   0 | 450 | 482 | 450 |   9 |  7 |1140 |  19 | 2.724203e+04 | 2.748200e+04 |   0.88%| unknown
 51.6s|     1 |     0 |  8627 |     - |   120M |   0 | 450 | 483 | 447 |   9 |  7 |1141 |  19 | 2.724203e+04 | 2.748200e+04 |   0.88%| unknown
 time | node  | left  |LP iter|LP it/n|mem/heur|mdpt |vars |cons |rows |cuts |sepa|confs|strbr|  dualbound   | primalbound  |  gap   | compl. 
 52.3s|     1 |     0 |  8718 |     - |   121M |   0 | 450 | 480 | 449 |  11 |  8 |1141 |  19 | 2.724273e+04 | 2.748200e+04 |   0.88%| unknown
 52.3s|     1 |     0 |  8718 |     - |   121M |   0 | 450 | 480 | 448 |  11 |  8 |1141 |  19 | 2.724273e+04 | 2.748200e+04 |   0.88%| unknown
 53.0s|     1 |     0 |  8755 |     - |   121M |   0 | 450 | 479 | 449 |  12 |  9 |1141 |  19 | 2.724778e+04 | 2.748200e+04 |   0.86%| unknown
 53.0s|     1 |     0 |  8755 |     - |   121M |   0 | 450 | 480 | 447 |  12 |  9 |1142 |  19 | 2.724778e+04 | 2.748200e+04 |   0.86%| unknown
 53.2s|     1 |     0 |  8788 |     - |   123M |   0 | 450 | 478 | 449 |  14 | 10 |1142 |  19 | 2.725279e+04 | 2.748200e+04 |   0.84%| unknown
 53.6s|     1 |     0 |  8817 |     - |   123M |   0 | 450 | 479 | 450 |  15 | 11 |1143 |  19 | 2.725451e+04 | 2.748200e+04 |   0.83%| unknown
 53.8s|     1 |     0 |  8852 |     - |   123M |   0 | 450 | 479 | 452 |  17 | 12 |1143 |  19 | 2.725575e+04 | 2.748200e+04 |   0.83%| unknown
 53.8s|     1 |     0 |  8852 |     - |   123M |   0 | 450 | 479 | 450 |  17 | 12 |1143 |  19 | 2.725575e+04 | 2.748200e+04 |   0.83%| unknown
 53.8s|     1 |     0 |  8874 |     - |   123M |   0 | 450 | 477 | 451 |  18 | 13 |1143 |  19 | 2.725743e+04 | 2.748200e+04 |   0.82%| unknown
 53.8s|     1 |     0 |  8874 |     - |   123M |   0 | 450 | 480 | 450 |  18 | 13 |1146 |  19 | 2.725743e+04 | 2.748200e+04 |   0.82%| unknown
 53.9s|     1 |     0 |  8894 |     - |   123M |   0 | 450 | 479 | 451 |  19 | 14 |1146 |  19 | 2.725811e+04 | 2.748200e+04 |   0.82%| unknown
 54.0s|     1 |     0 |  8894 |     - |   123M |   0 | 450 | 480 | 450 |  19 | 14 |1147 |  19 | 2.725811e+04 | 2.748200e+04 |   0.82%| unknown
 54.1s|     1 |     0 |  8917 |     - |   123M |   0 | 450 | 479 | 430 |  20 | 15 |1147 |  19 | 2.725948e+04 | 2.748200e+04 |   0.82%| unknown
 54.1s|     1 |     0 |  8917 |     - |   124M |   0 | 450 | 480 | 429 |  20 | 15 |1148 |  19 | 2.725948e+04 | 2.748200e+04 |   0.82%| unknown
 54.1s|     1 |     0 |  8949 |     - |   124M |   0 | 450 | 479 | 430 |  21 | 16 |1148 |  19 | 2.726173e+04 | 2.748200e+04 |   0.81%| unknown
 time | node  | left  |LP iter|LP it/n|mem/heur|mdpt |vars |cons |rows |cuts |sepa|confs|strbr|  dualbound   | primalbound  |  gap   | compl. 
 54.2s|     1 |     0 |  8992 |     - |   124M |   0 | 450 | 479 | 431 |  22 | 17 |1148 |  19 | 2.726717e+04 | 2.748200e+04 |   0.79%| unknown
 54.2s|     1 |     0 |  8992 |     - |   124M |   0 | 450 | 480 | 426 |  22 | 17 |1149 |  19 | 2.726717e+04 | 2.748200e+04 |   0.79%| unknown
 54.3s|     1 |     0 |  9017 |     - |   124M |   0 | 450 | 475 | 428 |  24 | 18 |1149 |  19 | 2.726943e+04 | 2.748200e+04 |   0.78%| unknown
 54.3s|     1 |     0 |  9017 |     - |   124M |   0 | 450 | 476 | 424 |  24 | 18 |1150 |  19 | 2.726943e+04 | 2.748200e+04 |   0.78%| unknown
 54.3s|     1 |     0 |  9039 |     - |   124M |   0 | 450 | 472 | 425 |  25 | 19 |1150 |  19 | 2.727442e+04 | 2.748200e+04 |   0.76%| unknown
 54.4s|     1 |     0 |  9064 |     - |   124M |   0 | 450 | 472 | 426 |  26 | 20 |1150 |  19 | 2.727768e+04 | 2.748200e+04 |   0.75%| unknown
 54.4s|     1 |     0 |  9064 |     - |   124M |   0 | 450 | 474 | 423 |  26 | 20 |1152 |  19 | 2.727768e+04 | 2.748200e+04 |   0.75%| unknown
 54.4s|     1 |     0 |  9071 |     - |   124M |   0 | 450 | 471 | 420 |  27 | 21 |1152 |  19 | 2.727782e+04 | 2.748200e+04 |   0.75%| unknown
 54.7s|     1 |     0 |  9601 |     - |   124M |   0 | 450 | 446 | 420 |  27 | 23 |1166 |  25 | 2.738240e+04 | 2.748200e+04 |   0.36%| unknown
 54.7s|     1 |     0 |  9601 |     - |   124M |   0 | 450 | 446 | 401 |  27 | 23 |1166 |  25 | 2.738240e+04 | 2.748200e+04 |   0.36%| unknown
 54.7s|     1 |     0 |  9623 |     - |   124M |   0 | 450 | 429 | 400 |  28 | 24 |1166 |  25 | 2.738240e+04 | 2.748200e+04 |   0.36%| unknown
 54.7s|     1 |     0 |  9623 |     - |   124M |   0 | 450 | 429 | 399 |  28 | 24 |1166 |  25 | 2.738240e+04 | 2.748200e+04 |   0.36%| unknown
 54.8s|     1 |     0 |  9623 |     - |   124M |   0 | 450 | 420 | 399 |  28 | 25 |1166 |  25 | 2.738240e+04 | 2.748200e+04 |   0.36%| unknown
 54.8s|     1 |     0 |  9626 |     - |   124M |   0 | 450 | 420 | 400 |  29 | 26 |1166 |  25 | 2.738240e+04 | 2.748200e+04 |   0.36%| unknown
 54.8s|     1 |     0 |  9631 |     - |   124M |   0 | 450 | 421 | 401 |  30 | 27 |1167 |  25 | 2.738240e+04 | 2.748200e+04 |   0.36%| unknown
 time | node  | left  |LP iter|LP it/n|mem/heur|mdpt |vars |cons |rows |cuts |sepa|confs|strbr|  dualbound   | primalbound  |  gap   | compl. 
 54.8s|     1 |     0 |  9631 |     - |   124M |   0 | 450 | 421 | 400 |  30 | 27 |1167 |  25 | 2.738240e+04 | 2.748200e+04 |   0.36%| unknown
 54.8s|     1 |     0 |  9658 |     - |   124M |   0 | 450 | 422 | 400 |  30 | 27 |1219 |  30 | 2.748200e+04 | 2.748200e+04 |   0.00%| unknown

SCIP Status        : problem is solved [optimal solution found]
Solving Time (sec) : 54.82
Solving Nodes      : 1 (total of 4 nodes in 4 runs)
Primal Bound       : +2.74820000000000e+04 (10 solutions)
Dual Bound         : +2.74820000000000e+04
Gap                : 0.00 %
Solve Status: optimal
Solve Time: 54.82 seconds
Objective Value: 27482.00
